Route #1: 119 81 2 1 3 4 5 6 83 113 84 112
Route #2: 89 109 8 12 13 14 15 11 10 9 7 117
Route #3: 87 92 91 90 114 18 118 85 86 111 82 88
Route #4: 21 20 26 23 25 24 22 19 16 17 108
Route #5: 28 31 27 30 33 34 36 35 32 29
Route #6: 38 39 42 47 50 49 46 44 41 37
Route #7: 40 43 45 48 51 65 59 57 54 52
Route #8: 53 55 58 61 62 64 66 63 60 56
Route #9: 102 101 99 100 116 103 104 107 106 105
Route #10: 95 93 96 94 97 115 110 98 67 70 69 120
Route #11: 68 76 77 79 80 78 75 72 74 71 73
Cost 1524
